\ Model sub
\ LP format - for model browsing. Use MPS format to capture full model detail.
Minimize
  5 x[0] + 13 x[1] + 22 x[2] + 18 x[3]
Subject To
 c[0]: - 7 x[0] + 7 x[1] - 16 x[2] + 17 x[3] = 7
 c[1]: 19 x[0] - 3 x[1] - 20 x[2] + 5 x[3] = 2
Bounds
End
